p cnf 177 428
c weights 1.0 1.0 2.718281828459045 0.36787944117144233 2.718281828459045 0.36787944117144233 2.718281828459045 0.36787944117144233 2.718281828459045 0.36787944117144233 1.0 1.0 2.718281828459045 0.36787944117144233 2.718281828459045 0.36787944117144233 2.718281828459045 0.36787944117144233 2.718281828459045 0.36787944117144233 1.0 1.0 2.718281828459045 0.36787944117144233 2.718281828459045 0.36787944117144233 2.718281828459045 0.36787944117144233 1.0 1.0 2.718281828459045 0.36787944117144233 2.718281828459045 0.36787944117144233 2.718281828459045 0.36787944117144233 1.0 1.0 2.718281828459045 0.36787944117144233 2.718281828459045 0.36787944117144233 2.718281828459045 0.36787944117144233 1.0 1.0 2.718281828459045 0.36787944117144233 2.718281828459045 0.36787944117144233 1.0 1.0 2.718281828459045 0.36787944117144233 2.718281828459045 0.36787944117144233 1.0 1.0 2.718281828459045 0.36787944117144233 2.718281828459045 0.36787944117144233 1.0 1.0 2.718281828459045 0.36787944117144233 2.718281828459045 0.36787944117144233 2.718281828459045 0.36787944117144233 2.718281828459045 0.36787944117144233 2.718281828459045 0.36787944117144233 2.718281828459045 0.36787944117144233 1.0 1.0 2.718281828459045 0.36787944117144233 2.718281828459045 0.36787944117144233 1.0 1.0 2.718281828459045 0.36787944117144233 2.718281828459045 0.36787944117144233 1.0 1.0 2.718281828459045 0.36787944117144233 2.718281828459045 0.36787944117144233 2.718281828459045 0.36787944117144233 1.0 1.0 2.718281828459045 0.36787944117144233 2.718281828459045 0.36787944117144233 2.718281828459045 0.36787944117144233 2.718281828459045 0.36787944117144233 1.0 1.0 2.718281828459045 0.36787944117144233 2.718281828459045 0.36787944117144233 1.0 1.0 2.718281828459045 0.36787944117144233 1.0 1.0 1.0 1.0 2.718281828459045 0.36787944117144233 2.718281828459045 0.36787944117144233 2.718281828459045 0.36787944117144233 2.718281828459045 0.36787944117144233 1.0 1.0 2.718281828459045 0.36787944117144233 2.718281828459045 0.36787944117144233 2.718281828459045 0.36787944117144233 1.0 1.0 2.718281828459045 0.36787944117144233 1.0 1.0 2.718281828459045 0.36787944117144233 2.718281828459045 0.36787944117144233 2.718281828459045 0.36787944117144233 1.0 1.0 2.718281828459045 0.36787944117144233 1.0 1.0 2.718281828459045 0.36787944117144233 1.0 1.0 2.718281828459045 0.36787944117144233 1.0 1.0 2.718281828459045 0.36787944117144233 1.0 1.0 2.718281828459045 0.36787944117144233 2.718281828459045 0.36787944117144233 2.718281828459045 0.36787944117144233 1.0 1.0 1.0 1.0 2.718281828459045 0.36787944117144233 2.718281828459045 0.36787944117144233 2.718281828459045 0.36787944117144233 2.718281828459045 0.36787944117144233 1.0 1.0 1.0 1.0 2.718281828459045 0.36787944117144233 1.0 1.0 2.718281828459045 0.36787944117144233 1.0 1.0 1.0 1.0 2.718281828459045 0.36787944117144233 2.718281828459045 0.36787944117144233 1.0 1.0 2.718281828459045 0.36787944117144233 2.718281828459045 0.36787944117144233 2.718281828459045 0.36787944117144233 2.718281828459045 0.36787944117144233 1.0 1.0 2.718281828459045 0.36787944117144233 2.718281828459045 0.36787944117144233 2.718281828459045 0.36787944117144233 1.0 1.0 2.718281828459045 0.36787944117144233 2.718281828459045 0.36787944117144233 1.0 1.0 2.718281828459045 0.36787944117144233 1.0 1.0 2.718281828459045 0.36787944117144233 1.0 1.0 2.718281828459045 0.36787944117144233 2.718281828459045 0.36787944117144233 1.0 1.0 2.718281828459045 0.36787944117144233 1.0 1.0 2.718281828459045 0.36787944117144233 2.718281828459045 0.36787944117144233 2.718281828459045 0.36787944117144233 1.0 1.0 2.718281828459045 0.36787944117144233 1.0 1.0 1.0 1.0 2.718281828459045 0.36787944117144233 2.718281828459045 0.36787944117144233 2.718281828459045 0.36787944117144233 2.718281828459045 0.36787944117144233 1.0 1.0 2.718281828459045 0.36787944117144233 2.718281828459045 0.36787944117144233 1.0 1.0 2.718281828459045 0.36787944117144233 1.0 1.0 2.718281828459045 0.36787944117144233 1.0 1.0 1.0 1.0 2.718281828459045 0.36787944117144233 1.0 1.0 2.718281828459045 0.36787944117144233 2.718281828459045 0.36787944117144233 1.0 1.0 2.718281828459045 0.36787944117144233 1.0 1.0 1.0 1.0 1.0 1.0 2.718281828459045 0.36787944117144233 2.718281828459045 0.36787944117144233 2.718281828459045 0.36787944117144233 2.718281828459045 0.36787944117144233 1.0 1.0 1.0 1.0 1.0 1.0 1.0 1.0 2.718281828459045 0.36787944117144233 1.0 1.0 2.718281828459045 0.36787944117144233 1.0 1.0 1.0 1.0 1.0 1.0 2.718281828459045 0.36787944117144233 1.0 1.0 1.0 1.0 2.718281828459045 0.36787944117144233 1.0 1.0 1.0 1.0 1.0 1.0 1.0 1.0 1.0 1.0 1.0 1.0 1.0 1.0
2 1 71 0
2 -1 -71 0
-2 1 -71 0
-2 -1 71 0
3 1 75 0
3 -1 -75 0
-3 1 -75 0
-3 -1 75 0
4 1 102 0
4 -1 -102 0
-4 1 -102 0
-4 -1 102 0
5 1 171 0
5 -1 -171 0
-5 1 -171 0
-5 -1 171 0
7 6 135 0
7 -6 -135 0
-7 6 -135 0
-7 -6 135 0
8 6 140 0
8 -6 -140 0
-8 6 -140 0
-8 -6 140 0
9 6 152 0
9 -6 -152 0
-9 6 -152 0
-9 -6 152 0
10 6 164 0
10 -6 -164 0
-10 6 -164 0
-10 -6 164 0
12 11 42 0
12 -11 -42 0
-12 11 -42 0
-12 -11 42 0
13 11 94 0
13 -11 -94 0
-13 11 -94 0
-13 -11 94 0
14 11 142 0
14 -11 -142 0
-14 11 -142 0
-14 -11 142 0
16 15 32 0
16 -15 -32 0
-16 15 -32 0
-16 -15 32 0
17 15 107 0
17 -15 -107 0
-17 15 -107 0
-17 -15 107 0
18 15 138 0
18 -15 -138 0
-18 15 -138 0
-18 -15 138 0
20 19 75 0
20 -19 -75 0
-20 19 -75 0
-20 -19 75 0
21 19 165 0
21 -19 -165 0
-21 19 -165 0
-21 -19 165 0
22 19 172 0
22 -19 -172 0
-22 19 -172 0
-22 -19 172 0
24 23 145 0
24 -23 -145 0
-24 23 -145 0
-24 -23 145 0
25 23 164 0
25 -23 -164 0
-25 23 -164 0
-25 -23 164 0
27 26 130 0
27 -26 -130 0
-27 26 -130 0
-27 -26 130 0
28 26 168 0
28 -26 -168 0
-28 26 -168 0
-28 -26 168 0
30 29 81 0
30 -29 -81 0
-30 29 -81 0
-30 -29 81 0
31 29 96 0
31 -29 -96 0
-31 29 -96 0
-31 -29 96 0
33 32 45 0
33 -32 -45 0
-33 32 -45 0
-33 -32 45 0
34 32 81 0
34 -32 -81 0
-34 32 -81 0
-34 -32 81 0
35 32 88 0
35 -32 -88 0
-35 32 -88 0
-35 -32 88 0
36 32 116 0
36 -32 -116 0
-36 32 -116 0
-36 -32 116 0
37 32 142 0
37 -32 -142 0
-37 32 -142 0
-37 -32 142 0
38 32 158 0
38 -32 -158 0
-38 32 -158 0
-38 -32 158 0
40 39 99 0
40 -39 -99 0
-40 39 -99 0
-40 -39 99 0
41 39 177 0
41 -39 -177 0
-41 39 -177 0
-41 -39 177 0
43 42 123 0
43 -42 -123 0
-43 42 -123 0
-43 -42 123 0
44 42 171 0
44 -42 -171 0
-44 42 -171 0
-44 -42 171 0
46 45 129 0
46 -45 -129 0
-46 45 -129 0
-46 -45 129 0
47 45 158 0
47 -45 -158 0
-47 45 -158 0
-47 -45 158 0
48 45 165 0
48 -45 -165 0
-48 45 -165 0
-48 -45 165 0
50 49 81 0
50 -49 -81 0
-50 49 -81 0
-50 -49 81 0
51 49 143 0
51 -49 -143 0
-51 49 -143 0
-51 -49 143 0
52 49 158 0
52 -49 -158 0
-52 49 -158 0
-52 -49 158 0
53 49 168 0
53 -49 -168 0
-53 49 -168 0
-53 -49 168 0
55 54 93 0
55 -54 -93 0
-55 54 -93 0
-55 -54 93 0
56 54 116 0
56 -54 -116 0
-56 54 -116 0
-56 -54 116 0
58 57 102 0
58 -57 -102 0
-58 57 -102 0
-58 -57 102 0
61 60 65 0
61 -60 -65 0
-61 60 -65 0
-61 -60 65 0
62 60 143 0
62 -60 -143 0
-62 60 -143 0
-62 -60 143 0
63 60 166 0
63 -60 -166 0
-63 60 -166 0
-63 -60 166 0
64 60 172 0
64 -60 -172 0
-64 60 -172 0
-64 -60 172 0
66 65 123 0
66 -65 -123 0
-66 65 -123 0
-66 -65 123 0
67 65 130 0
67 -65 -130 0
-67 65 -130 0
-67 -65 130 0
68 65 143 0
68 -65 -143 0
-68 65 -143 0
-68 -65 143 0
70 69 116 0
70 -69 -116 0
-70 69 -116 0
-70 -69 116 0
72 71 99 0
72 -71 -99 0
-72 71 -99 0
-72 -71 99 0
73 71 143 0
73 -71 -143 0
-73 71 -143 0
-73 -71 143 0
74 71 173 0
74 -71 -173 0
-74 71 -173 0
-74 -71 173 0
76 75 135 0
76 -75 -135 0
-76 75 -135 0
-76 -75 135 0
78 77 118 0
78 -77 -118 0
-78 77 -118 0
-78 -77 118 0
80 79 159 0
80 -79 -159 0
-80 79 -159 0
-80 -79 159 0
82 81 140 0
82 -81 -140 0
-82 81 -140 0
-82 -81 140 0
84 83 107 0
84 -83 -107 0
-84 83 -107 0
-84 -83 107 0
85 83 123 0
85 -83 -123 0
-85 83 -123 0
-85 -83 123 0
86 83 145 0
86 -83 -145 0
-86 83 -145 0
-86 -83 145 0
89 88 116 0
89 -88 -116 0
-89 88 -116 0
-89 -88 116 0
90 88 127 0
90 -88 -127 0
-90 88 -127 0
-90 -88 127 0
91 88 158 0
91 -88 -158 0
-91 88 -158 0
-91 -88 158 0
92 88 176 0
92 -88 -176 0
-92 88 -176 0
-92 -88 176 0
95 94 160 0
95 -94 -160 0
-95 94 -160 0
-95 -94 160 0
97 96 129 0
97 -96 -129 0
-97 96 -129 0
-97 -96 129 0
100 99 116 0
100 -99 -116 0
-100 99 -116 0
-100 -99 116 0
101 99 150 0
101 -99 -150 0
-101 99 -150 0
-101 -99 150 0
103 102 114 0
103 -102 -114 0
-103 102 -114 0
-103 -102 114 0
104 102 164 0
104 -102 -164 0
-104 102 -164 0
-104 -102 164 0
105 102 171 0
105 -102 -171 0
-105 102 -171 0
-105 -102 171 0
106 102 177 0
106 -102 -177 0
-106 102 -177 0
-106 -102 177 0
108 107 168 0
108 -107 -168 0
-108 107 -168 0
-108 -107 168 0
109 107 171 0
109 -107 -171 0
-109 107 -171 0
-109 -107 171 0
110 107 175 0
110 -107 -175 0
-110 107 -175 0
-110 -107 175 0
112 111 152 0
112 -111 -152 0
-112 111 -152 0
-112 -111 152 0
113 111 171 0
113 -111 -171 0
-113 111 -171 0
-113 -111 171 0
115 114 172 0
115 -114 -172 0
-115 114 -172 0
-115 -114 172 0
117 116 135 0
117 -116 -135 0
-117 116 -135 0
-117 -116 135 0
119 118 138 0
119 -118 -138 0
-119 118 -138 0
-119 -118 138 0
120 118 159 0
120 -118 -159 0
-120 118 -159 0
-120 -118 159 0
122 121 152 0
122 -121 -152 0
-122 121 -152 0
-122 -121 152 0
124 123 152 0
124 -123 -152 0
-124 123 -152 0
-124 -123 152 0
125 123 166 0
125 -123 -166 0
-125 123 -166 0
-125 -123 166 0
126 123 176 0
126 -123 -176 0
-126 123 -176 0
-126 -123 176 0
128 127 150 0
128 -127 -150 0
-128 127 -150 0
-128 -127 150 0
131 130 142 0
131 -130 -142 0
-131 130 -142 0
-131 -130 142 0
132 130 145 0
132 -130 -145 0
-132 130 -145 0
-132 -130 145 0
133 130 150 0
133 -130 -150 0
-133 130 -150 0
-133 -130 150 0
134 130 158 0
134 -130 -158 0
-134 130 -158 0
-134 -130 158 0
136 135 138 0
136 -135 -138 0
-136 135 -138 0
-136 -135 138 0
137 135 174 0
137 -135 -174 0
-137 135 -174 0
-137 -135 174 0
139 138 168 0
139 -138 -168 0
-139 138 -168 0
-139 -138 168 0
141 140 164 0
141 -140 -164 0
-141 140 -164 0
-141 -140 164 0
144 143 176 0
144 -143 -176 0
-144 143 -176 0
-144 -143 176 0
146 145 172 0
146 -145 -172 0
-146 145 -172 0
-146 -145 172 0
147 145 176 0
147 -145 -176 0
-147 145 -176 0
-147 -145 176 0
149 148 159 0
149 -148 -159 0
-149 148 -159 0
-149 -148 159 0
153 152 157 0
153 -152 -157 0
-153 152 -157 0
-153 -152 157 0
154 152 164 0
154 -152 -164 0
-154 152 -164 0
-154 -152 164 0
155 152 168 0
155 -152 -168 0
-155 152 -168 0
-155 -152 168 0
156 152 171 0
156 -152 -171 0
-156 152 -171 0
-156 -152 171 0
161 160 175 0
161 -160 -175 0
-161 160 -175 0
-161 -160 175 0
163 162 176 0
163 -162 -176 0
-163 162 -176 0
-163 -162 176 0
167 166 173 0
167 -166 -173 0
-167 166 -173 0
-167 -166 173 0
170 169 172 0
170 -169 -172 0
-170 169 -172 0
-170 -169 172 0
